TYPE : Vertex Cover
DIMENSION: 35
EDGE_DATA_SECTION:
0 4
0 6
0 7
0 9
0 13
0 14
0 19
0 24
0 25
0 26
0 32
1 3
1 4
1 8
1 9
1 10
1 12
1 19
1 22
1 29
2 10
2 16
2 27
2 30
3 5
3 9
3 10
3 21
3 22
3 23
3 27
3 29
4 7
4 12
4 14
4 15
4 17
4 20
4 22
4 23
4 27
4 28
4 33
5 9
5 15
5 17
5 18
5 24
5 26
5 27
5 31
5 34
6 16
6 17
6 18
6 20
6 23
6 29
6 31
6 32
6 33
7 10
7 12
7 14
7 22
7 25
7 26
7 27
7 31
8 11
8 16
8 17
8 19
8 20
8 24
8 27
9 10
9 18
9 20
9 26
9 27
9 30
9 32
10 11
10 13
10 15
10 16
10 17
10 20
10 30
10 31
10 33
11 14
11 15
11 18
11 19
11 25
11 26
11 28
11 29
11 32
12 24
12 26
12 27
12 30
13 14
13 17
13 20
13 24
13 25
14 19
14 24
14 27
14 30
14 32
15 18
15 23
15 27
15 33
15 34
16 22
16 23
16 28
16 29
16 32
17 25
17 34
18 26
18 28
18 29
19 26
19 29
20 21
20 27
21 22
21 25
21 33
21 34
22 23
22 24
22 25
22 29
22 30
22 34
23 24
23 25
25 27
25 28
25 32
26 28
28 32
30 31
31 34
32 34
-1
VERTEX_DEGREE:
11.0 9.0 4.0 9.0 13.0 10.0 10.0 10.0 8.0 11.0 14.0 11.0 7.0 7.0 10.0 9.0 9.0 8.0 8.0 7.0 8.0 6.0 12.0 8.0 8.0 11.0 9.0 12.0 7.0 8.0 7.0 6.0 9.0 5.0 7.0
VERTEX_COVER:
0 1 4 5 6 7 8 9 10 11 13 14 15 16 21 22 23 24 25 26 27 28 29 30 34
EOF
